data/lp_files/pEFS/85_7.lp
\ Model foo
\ LP format - for model browsing. Use MPS format to capture full model detail.
Minimize
  z
Subject To
 allocateEach[1]: x[1,1] + x[2,1] + x[3,1] + x[4,1] + x[5,1] = 1
 allocateEach[2]: x[1,2] + x[2,2] + x[3,2] + x[4,2] + x[5,2] = 1
 allocateEach[3]: x[1,3] + x[2,3] + x[3,3] + x[4,3] + x[5,3] = 1
 allocateEach[4]: x[1,4] + x[2,4] + x[3,4] + x[4,4] + x[5,4] = 1
 allocateEach[5]: x[1,5] + x[2,5] + x[3,5] + x[4,5] + x[5,5] = 1
 allocateAllCash: cashProportion[1] + cashProportion[2] + cashProportion[3]
   + cashProportion[4] + cashProportion[5] = 1
 findWorstP[1,2]: z + 0.1788695444788934 cashProportion[1]
   - 0.1788695444788934 cashProportion[2] + 0.2807059384688768 x[1,1]
   + 0.0457906033865967 x[1,2] + 0.2589732888146912 x[1,3]
   + 0.220635583114715 x[1,4] + 0.015025041736227 x[1,5]
   - 0.2807059384688768 x[2,1] - 0.0457906033865967 x[2,2]
   - 0.2589732888146912 x[2,3] - 0.220635583114715 x[2,4]
   - 0.015025041736227 x[2,5] >= 0
 findWorstP[1,3]: z + 0.1788695444788934 cashProportion[1]
   - 0.1788695444788934 cashProportion[3] + 0.2807059384688768 x[1,1]
   + 0.0457906033865967 x[1,2] + 0.2589732888146912 x[1,3]
   + 0.220635583114715 x[1,4] + 0.015025041736227 x[1,5]
   - 0.2807059384688768 x[3,1] - 0.0457906033865967 x[3,2]
   - 0.2589732888146912 x[3,3] - 0.220635583114715 x[3,4]
   - 0.015025041736227 x[3,5] >= 0
 findWorstP[1,4]: z + 0.1788695444788934 cashProportion[1]
   - 0.1788695444788934 cashProportion[4] + 0.2807059384688768 x[1,1]
   + 0.0457906033865967 x[1,2] + 0.2589732888146912 x[1,3]
   + 0.220635583114715 x[1,4] + 0.015025041736227 x[1,5]
   - 0.2807059384688768 x[4,1] - 0.0457906033865967 x[4,2]
   - 0.2589732888146912 x[4,3] - 0.220635583114715 x[4,4]
   - 0.015025041736227 x[4,5] >= 0
 findWorstP[1,5]: z + 0.1788695444788934 cashProportion[1]
   - 0.1788695444788934 cashProportion[5] + 0.2807059384688768 x[1,1]
   + 0.0457906033865967 x[1,2] + 0.2589732888146912 x[1,3]
   + 0.220635583114715 x[1,4] + 0.015025041736227 x[1,5]
   - 0.2807059384688768 x[5,1] - 0.0457906033865967 x[5,2]
   - 0.2589732888146912 x[5,3] - 0.220635583114715 x[5,4]
   - 0.015025041736227 x[5,5] >= 0
 findWorstP[2,1]: z - 0.1995875191271373 cashProportion[1]
   + 0.1995875191271373 cashProportion[2] - 0.0311023883973122 x[1,1]
   - 0.1811922027809194 x[1,2] - 0.2694431508216353 x[1,3]
   - 0.1673873993746257 x[1,4] - 0.15128733949837 x[1,5]
   + 0.0311023883973122 x[2,1] + 0.1811922027809194 x[2,2]
   + 0.2694431508216353 x[2,3] + 0.1673873993746257 x[2,4]
   + 0.15128733949837 x[2,5] >= 0
 findWorstP[2,3]: z + 0.1995875191271373 cashProportion[2]
   - 0.1995875191271373 cashProportion[3] + 0.0311023883973122 x[2,1]
   + 0.1811922027809194 x[2,2] + 0.2694431508216353 x[2,3]
   + 0.1673873993746257 x[2,4] + 0.15128733949837 x[2,5]
   - 0.0311023883973122 x[3,1] - 0.1811922027809194 x[3,2]
   - 0.2694431508216353 x[3,3] - 0.1673873993746257 x[3,4]
   - 0.15128733949837 x[3,5] >= 0
 findWorstP[2,4]: z + 0.1995875191271373 cashProportion[2]
   - 0.1995875191271373 cashProportion[4] + 0.0311023883973122 x[2,1]
   + 0.1811922027809194 x[2,2] + 0.2694431508216353 x[2,3]
   + 0.1673873993746257 x[2,4] + 0.15128733949837 x[2,5]
   - 0.0311023883973122 x[4,1] - 0.1811922027809194 x[4,2]
   - 0.2694431508216353 x[4,3] - 0.1673873993746257 x[4,4]
   - 0.15128733949837 x[4,5] >= 0
 findWorstP[2,5]: z + 0.1995875191271373 cashProportion[2]
   - 0.1995875191271373 cashProportion[5] + 0.0311023883973122 x[2,1]
   + 0.1811922027809194 x[2,2] + 0.2694431508216353 x[2,3]
   + 0.1673873993746257 x[2,4] + 0.15128733949837 x[2,5]
   - 0.0311023883973122 x[5,1] - 0.1811922027809194 x[5,2]
   - 0.2694431508216353 x[5,3] - 0.1673873993746257 x[5,4]
   - 0.15128733949837 x[5,5] >= 0
 findWorstP[3,1]: z - 0.1600170684873053 cashProportion[1]
   + 0.1600170684873053 cashProportion[3] - 0.1958075528056326 x[1,1]
   - 0.2329048431832729 x[1,2] - 0.1566033710262428 x[1,3]
   - 0.0614998933219543 x[1,4] - 0.1931672711755921 x[1,5]
   + 0.1958075528056326 x[3,1] + 0.2329048431832729 x[3,2]
   + 0.1566033710262428 x[3,3] + 0.0614998933219543 x[3,4]
   + 0.1931672711755921 x[3,5] >= 0
 findWorstP[3,2]: z - 0.1600170684873053 cashProportion[2]
   + 0.1600170684873053 cashProportion[3] - 0.1958075528056326 x[2,1]
   - 0.2329048431832729 x[2,2] - 0.1566033710262428 x[2,3]
   - 0.0614998933219543 x[2,4] - 0.1931672711755921 x[2,5]
   + 0.1958075528056326 x[3,1] + 0.2329048431832729 x[3,2]
   + 0.1566033710262428 x[3,3] + 0.0614998933219543 x[3,4]
   + 0.1931672711755921 x[3,5] >= 0
 findWorstP[3,4]: z + 0.1600170684873053 cashProportion[3]
   - 0.1600170684873053 cashProportion[4] + 0.1958075528056326 x[3,1]
   + 0.2329048431832729 x[3,2] + 0.1566033710262428 x[3,3]
   + 0.0614998933219543 x[3,4] + 0.1931672711755921 x[3,5]
   - 0.1958075528056326 x[4,1] - 0.2329048431832729 x[4,2]
   - 0.1566033710262428 x[4,3] - 0.0614998933219543 x[4,4]
   - 0.1931672711755921 x[4,5] >= 0
 findWorstP[3,5]: z + 0.1600170684873053 cashProportion[3]
   - 0.1600170684873053 cashProportion[5] + 0.1958075528056326 x[3,1]
   + 0.2329048431832729 x[3,2] + 0.1566033710262428 x[3,3]
   + 0.0614998933219543 x[3,4] + 0.1931672711755921 x[3,5]
   - 0.1958075528056326 x[5,1] - 0.2329048431832729 x[5,2]
   - 0.1566033710262428 x[5,3] - 0.0614998933219543 x[5,4]
   - 0.1931672711755921 x[5,5] >= 0
 findWorstP[4,1]: z - 0.1453840562151684 cashProportion[1]
   + 0.1453840562151684 cashProportion[4] - 0.1988126968742427 x[1,1]
   - 0.2373394717712624 x[1,2] - 0.2074872788950811 x[1,3]
   - 0.0799127695662709 x[1,4] - 0.1310637266779743 x[1,5]
   + 0.1988126968742427 x[4,1] + 0.2373394717712624 x[4,2]
   + 0.2074872788950811 x[4,3] + 0.0799127695662709 x[4,4]
   + 0.1310637266779743 x[4,5] >= 0
 findWorstP[4,2]: z - 0.1453840562151684 cashProportion[2]
   + 0.1453840562151684 cashProportion[4] - 0.1988126968742427 x[2,1]
   - 0.2373394717712624 x[2,2] - 0.2074872788950811 x[2,3]
   - 0.0799127695662709 x[2,4] - 0.1310637266779743 x[2,5]
   + 0.1988126968742427 x[4,1] + 0.2373394717712624 x[4,2]
   + 0.2074872788950811 x[4,3] + 0.0799127695662709 x[4,4]
   + 0.1310637266779743 x[4,5] >= 0
 findWorstP[4,3]: z - 0.1453840562151684 cashProportion[3]
   + 0.1453840562151684 cashProportion[4] - 0.1988126968742427 x[3,1]
   - 0.2373394717712624 x[3,2] - 0.2074872788950811 x[3,3]
   - 0.0799127695662709 x[3,4] - 0.1310637266779743 x[3,5]
   + 0.1988126968742427 x[4,1] + 0.2373394717712624 x[4,2]
   + 0.2074872788950811 x[4,3] + 0.0799127695662709 x[4,4]
   + 0.1310637266779743 x[4,5] >= 0
 findWorstP[4,5]: z + 0.1453840562151684 cashProportion[4]
   - 0.1453840562151684 cashProportion[5] + 0.1988126968742427 x[4,1]
   + 0.2373394717712624 x[4,2] + 0.2074872788950811 x[4,3]
   + 0.0799127695662709 x[4,4] + 0.1310637266779743 x[4,5]
   - 0.1988126968742427 x[5,1] - 0.2373394717712624 x[5,2]
   - 0.2074872788950811 x[5,3] - 0.0799127695662709 x[5,4]
   - 0.1310637266779743 x[5,5] >= 0
 findWorstP[5,1]: z - 0.1404099971918001 cashProportion[1]
   + 0.1404099971918001 cashProportion[5] - 0.2118318824300291 x[1,1]
   - 0.0731302068707292 x[1,2] - 0.2079472058410559 x[1,3]
   - 0.2099597491341384 x[1,4] - 0.1567209585322475 x[1,5]
   + 0.2118318824300291 x[5,1] + 0.0731302068707292 x[5,2]
   + 0.2079472058410559 x[5,3] + 0.2099597491341384 x[5,4]
   + 0.1567209585322475 x[5,5] >= 0
 findWorstP[5,2]: z - 0.1404099971918001 cashProportion[2]
   + 0.1404099971918001 cashProportion[5] - 0.2118318824300291 x[2,1]
   - 0.0731302068707292 x[2,2] - 0.2079472058410559 x[2,3]
   - 0.2099597491341384 x[2,4] - 0.1567209585322475 x[2,5]
   + 0.2118318824300291 x[5,1] + 0.0731302068707292 x[5,2]
   + 0.2079472058410559 x[5,3] + 0.2099597491341384 x[5,4]
   + 0.1567209585322475 x[5,5] >= 0
 findWorstP[5,3]: z - 0.1404099971918001 cashProportion[3]
   + 0.1404099971918001 cashProportion[5] - 0.2118318824300291 x[3,1]
   - 0.0731302068707292 x[3,2] - 0.2079472058410559 x[3,3]
   - 0.2099597491341384 x[3,4] - 0.1567209585322475 x[3,5]
   + 0.2118318824300291 x[5,1] + 0.0731302068707292 x[5,2]
   + 0.2079472058410559 x[5,3] + 0.2099597491341384 x[5,4]
   + 0.1567209585322475 x[5,5] >= 0
 findWorstP[5,4]: z - 0.1404099971918001 cashProportion[4]
   + 0.1404099971918001 cashProportion[5] - 0.2118318824300291 x[4,1]
   - 0.0731302068707292 x[4,2] - 0.2079472058410559 x[4,3]
   - 0.2099597491341384 x[4,4] - 0.1567209585322475 x[4,5]
   + 0.2118318824300291 x[5,1] + 0.0731302068707292 x[5,2]
   + 0.2079472058410559 x[5,3] + 0.2099597491341384 x[5,4]
   + 0.1567209585322475 x[5,5] >= 0
Bounds
 z <= 1
 -infinity <= cashProportion[1] <= 1
 -infinity <= cashProportion[2] <= 1
 -infinity <= cashProportion[3] <= 1
 -infinity <= cashProportion[4] <= 1
 -infinity <= cashProportion[5] <= 1
Binaries
 x[1,1] x[1,2] x[1,3] x[1,4] x[1,5] x[2,1] x[2,2] x[2,3] x[2,4] x[2,5]
 x[3,1] x[3,2] x[3,3] x[3,4] x[3,5] x[4,1] x[4,2] x[4,3] x[4,4] x[4,5]
 x[5,1] x[5,2] x[5,3] x[5,4] x[5,5]
End
