data/mps_files/q3/85_7.mps
NAME foo
ROWS
 N  OBJ
 E  allocateEach[1]
 E  allocateEach[2]
 E  allocateEach[3]
 E  allocateEach[4]
 E  allocateEach[5]
 E  allocateAllCash
 G  findWorstP[1,2]
 G  findWorstP[1,3]
 G  findWorstP[1,4]
 G  findWorstP[1,5]
 G  findWorstP[2,1]
 G  findWorstP[2,3]
 G  findWorstP[2,4]
 G  findWorstP[2,5]
 G  findWorstP[3,1]
 G  findWorstP[3,2]
 G  findWorstP[3,4]
 G  findWorstP[3,5]
 G  findWorstP[4,1]
 G  findWorstP[4,2]
 G  findWorstP[4,3]
 G  findWorstP[4,5]
 G  findWorstP[5,1]
 G  findWorstP[5,2]
 G  findWorstP[5,3]
 G  findWorstP[5,4]
COLUMNS
    z         OBJ       1
    z         findWorstP[1,2]  1
    z         findWorstP[1,3]  1
    z         findWorstP[1,4]  1
    z         findWorstP[1,5]  1
    z         findWorstP[2,1]  1
    z         findWorstP[2,3]  1
    z         findWorstP[2,4]  1
    z         findWorstP[2,5]  1
    z         findWorstP[3,1]  1
    z         findWorstP[3,2]  1
    z         findWorstP[3,4]  1
    z         findWorstP[3,5]  1
    z         findWorstP[4,1]  1
    z         findWorstP[4,2]  1
    z         findWorstP[4,3]  1
    z         findWorstP[4,5]  1
    z         findWorstP[5,1]  1
    z         findWorstP[5,2]  1
    z         findWorstP[5,3]  1
    z         findWorstP[5,4]  1
    cashProportion[1]  allocateAllCash  1
    cashProportion[1]  findWorstP[1,2]  1.7886954447889344e-01
    cashProportion[1]  findWorstP[1,3]  1.7886954447889344e-01
    cashProportion[1]  findWorstP[1,4]  1.7886954447889344e-01
    cashProportion[1]  findWorstP[1,5]  1.7886954447889344e-01
    cashProportion[1]  findWorstP[2,1]  -1.9958751912713726e-01
    cashProportion[1]  findWorstP[3,1]  -1.6001706848730532e-01
    cashProportion[1]  findWorstP[4,1]  -1.4538405621516839e-01
    cashProportion[1]  findWorstP[5,1]  -1.4040999719180011e-01
    cashProportion[2]  allocateAllCash  1
    cashProportion[2]  findWorstP[1,2]  -1.7886954447889344e-01
    cashProportion[2]  findWorstP[2,1]  1.9958751912713726e-01
    cashProportion[2]  findWorstP[2,3]  1.9958751912713726e-01
    cashProportion[2]  findWorstP[2,4]  1.9958751912713726e-01
    cashProportion[2]  findWorstP[2,5]  1.9958751912713726e-01
    cashProportion[2]  findWorstP[3,2]  -1.6001706848730532e-01
    cashProportion[2]  findWorstP[4,2]  -1.4538405621516839e-01
    cashProportion[2]  findWorstP[5,2]  -1.4040999719180011e-01
    cashProportion[3]  allocateAllCash  1
    cashProportion[3]  findWorstP[1,3]  -1.7886954447889344e-01
    cashProportion[3]  findWorstP[2,3]  -1.9958751912713726e-01
    cashProportion[3]  findWorstP[3,1]  1.6001706848730532e-01
    cashProportion[3]  findWorstP[3,2]  1.6001706848730532e-01
    cashProportion[3]  findWorstP[3,4]  1.6001706848730532e-01
    cashProportion[3]  findWorstP[3,5]  1.6001706848730532e-01
    cashProportion[3]  findWorstP[4,3]  -1.4538405621516839e-01
    cashProportion[3]  findWorstP[5,3]  -1.4040999719180011e-01
    cashProportion[4]  allocateAllCash  1
    cashProportion[4]  findWorstP[1,4]  -1.7886954447889344e-01
    cashProportion[4]  findWorstP[2,4]  -1.9958751912713726e-01
    cashProportion[4]  findWorstP[3,4]  -1.6001706848730532e-01
    cashProportion[4]  findWorstP[4,1]  1.4538405621516839e-01
    cashProportion[4]  findWorstP[4,2]  1.4538405621516839e-01
    cashProportion[4]  findWorstP[4,3]  1.4538405621516839e-01
    cashProportion[4]  findWorstP[4,5]  1.4538405621516839e-01
    cashProportion[4]  findWorstP[5,4]  -1.4040999719180011e-01
    cashProportion[5]  allocateAllCash  1
    cashProportion[5]  findWorstP[1,5]  -1.7886954447889344e-01
    cashProportion[5]  findWorstP[2,5]  -1.9958751912713726e-01
    cashProportion[5]  findWorstP[3,5]  -1.6001706848730532e-01
    cashProportion[5]  findWorstP[4,5]  -1.4538405621516839e-01
    cashProportion[5]  findWorstP[5,1]  1.4040999719180011e-01
    cashProportion[5]  findWorstP[5,2]  1.4040999719180011e-01
    cashProportion[5]  findWorstP[5,3]  1.4040999719180011e-01
    cashProportion[5]  findWorstP[5,4]  1.4040999719180011e-01
    MARKER    'MARKER'                 'INTORG'
    x[1,1]    allocateEach[1]  1
    x[1,1]    findWorstP[1,2]  2.8070593846887676e-01
    x[1,1]    findWorstP[1,3]  2.8070593846887676e-01
    x[1,1]    findWorstP[1,4]  2.8070593846887676e-01
    x[1,1]    findWorstP[1,5]  2.8070593846887676e-01
    x[1,1]    findWorstP[2,1]  -3.1102388397312216e-02
    x[1,1]    findWorstP[3,1]  -1.9580755280563258e-01
    x[1,1]    findWorstP[4,1]  -1.9881269687424274e-01
    x[1,1]    findWorstP[5,1]  -2.1183188243002907e-01
    x[1,2]    allocateEach[2]  1
    x[1,2]    findWorstP[1,2]  4.5790603386596712e-02
    x[1,2]    findWorstP[1,3]  4.5790603386596712e-02
    x[1,2]    findWorstP[1,4]  4.5790603386596712e-02
    x[1,2]    findWorstP[1,5]  4.5790603386596712e-02
    x[1,2]    findWorstP[2,1]  -1.8119220278091941e-01
    x[1,2]    findWorstP[3,1]  -2.3290484318327287e-01
    x[1,2]    findWorstP[4,1]  -2.3733947177126238e-01
    x[1,2]    findWorstP[5,1]  -7.3130206870729214e-02
    x[1,3]    allocateEach[3]  1
    x[1,3]    findWorstP[1,2]  2.5897328881469117e-01
    x[1,3]    findWorstP[1,3]  2.5897328881469117e-01
    x[1,3]    findWorstP[1,4]  2.5897328881469117e-01
    x[1,3]    findWorstP[1,5]  2.5897328881469117e-01
    x[1,3]    findWorstP[2,1]  -2.6944315082163528e-01
    x[1,3]    findWorstP[3,1]  -1.5660337102624280e-01
    x[1,3]    findWorstP[4,1]  -2.0748727889508112e-01
    x[1,3]    findWorstP[5,1]  -2.0794720584105592e-01
    x[1,4]    allocateEach[4]  1
    x[1,4]    findWorstP[1,2]  0.220635583114715
    x[1,4]    findWorstP[1,3]  0.220635583114715
    x[1,4]    findWorstP[1,4]  0.220635583114715
    x[1,4]    findWorstP[1,5]  0.220635583114715
    x[1,4]    findWorstP[2,1]  -1.6738739937462574e-01
    x[1,4]    findWorstP[3,1]  -6.1499893321954338e-02
    x[1,4]    findWorstP[4,1]  -7.9912769566270872e-02
    x[1,4]    findWorstP[5,1]  -2.0995974913413840e-01
    x[1,5]    allocateEach[5]  1
    x[1,5]    findWorstP[1,2]  1.5025041736227047e-02
    x[1,5]    findWorstP[1,3]  1.5025041736227047e-02
    x[1,5]    findWorstP[1,4]  1.5025041736227047e-02
    x[1,5]    findWorstP[1,5]  1.5025041736227047e-02
    x[1,5]    findWorstP[2,1]  -0.15128733949837
    x[1,5]    findWorstP[3,1]  -1.9316727117559207e-01
    x[1,5]    findWorstP[4,1]  -1.3106372667797431e-01
    x[1,5]    findWorstP[5,1]  -1.5672095853224752e-01
    x[2,1]    allocateEach[1]  1
    x[2,1]    findWorstP[1,2]  -2.8070593846887676e-01
    x[2,1]    findWorstP[2,1]  3.1102388397312216e-02
    x[2,1]    findWorstP[2,3]  3.1102388397312216e-02
    x[2,1]    findWorstP[2,4]  3.1102388397312216e-02
    x[2,1]    findWorstP[2,5]  3.1102388397312216e-02
    x[2,1]    findWorstP[3,2]  -1.9580755280563258e-01
    x[2,1]    findWorstP[4,2]  -1.9881269687424274e-01
    x[2,1]    findWorstP[5,2]  -2.1183188243002907e-01
    x[2,2]    allocateEach[2]  1
    x[2,2]    findWorstP[1,2]  -4.5790603386596712e-02
    x[2,2]    findWorstP[2,1]  1.8119220278091941e-01
    x[2,2]    findWorstP[2,3]  1.8119220278091941e-01
    x[2,2]    findWorstP[2,4]  1.8119220278091941e-01
    x[2,2]    findWorstP[2,5]  1.8119220278091941e-01
    x[2,2]    findWorstP[3,2]  -2.3290484318327287e-01
    x[2,2]    findWorstP[4,2]  -2.3733947177126238e-01
    x[2,2]    findWorstP[5,2]  -7.3130206870729214e-02
    x[2,3]    allocateEach[3]  1
    x[2,3]    findWorstP[1,2]  -2.5897328881469117e-01
    x[2,3]    findWorstP[2,1]  2.6944315082163528e-01
    x[2,3]    findWorstP[2,3]  2.6944315082163528e-01
    x[2,3]    findWorstP[2,4]  2.6944315082163528e-01
    x[2,3]    findWorstP[2,5]  2.6944315082163528e-01
    x[2,3]    findWorstP[3,2]  -1.5660337102624280e-01
    x[2,3]    findWorstP[4,2]  -2.0748727889508112e-01
    x[2,3]    findWorstP[5,2]  -2.0794720584105592e-01
    x[2,4]    allocateEach[4]  1
    x[2,4]    findWorstP[1,2]  -0.220635583114715
    x[2,4]    findWorstP[2,1]  1.6738739937462574e-01
    x[2,4]    findWorstP[2,3]  1.6738739937462574e-01
    x[2,4]    findWorstP[2,4]  1.6738739937462574e-01
    x[2,4]    findWorstP[2,5]  1.6738739937462574e-01
    x[2,4]    findWorstP[3,2]  -6.1499893321954338e-02
    x[2,4]    findWorstP[4,2]  -7.9912769566270872e-02
    x[2,4]    findWorstP[5,2]  -2.0995974913413840e-01
    x[2,5]    allocateEach[5]  1
    x[2,5]    findWorstP[1,2]  -1.5025041736227047e-02
    x[2,5]    findWorstP[2,1]  0.15128733949837
    x[2,5]    findWorstP[2,3]  0.15128733949837
    x[2,5]    findWorstP[2,4]  0.15128733949837
    x[2,5]    findWorstP[2,5]  0.15128733949837
    x[2,5]    findWorstP[3,2]  -1.9316727117559207e-01
    x[2,5]    findWorstP[4,2]  -1.3106372667797431e-01
    x[2,5]    findWorstP[5,2]  -1.5672095853224752e-01
    x[3,1]    allocateEach[1]  1
    x[3,1]    findWorstP[1,3]  -2.8070593846887676e-01
    x[3,1]    findWorstP[2,3]  -3.1102388397312216e-02
    x[3,1]    findWorstP[3,1]  1.9580755280563258e-01
    x[3,1]    findWorstP[3,2]  1.9580755280563258e-01
    x[3,1]    findWorstP[3,4]  1.9580755280563258e-01
    x[3,1]    findWorstP[3,5]  1.9580755280563258e-01
    x[3,1]    findWorstP[4,3]  -1.9881269687424274e-01
    x[3,1]    findWorstP[5,3]  -2.1183188243002907e-01
    x[3,2]    allocateEach[2]  1
    x[3,2]    findWorstP[1,3]  -4.5790603386596712e-02
    x[3,2]    findWorstP[2,3]  -1.8119220278091941e-01
    x[3,2]    findWorstP[3,1]  2.3290484318327287e-01
    x[3,2]    findWorstP[3,2]  2.3290484318327287e-01
    x[3,2]    findWorstP[3,4]  2.3290484318327287e-01
    x[3,2]    findWorstP[3,5]  2.3290484318327287e-01
    x[3,2]    findWorstP[4,3]  -2.3733947177126238e-01
    x[3,2]    findWorstP[5,3]  -7.3130206870729214e-02
    x[3,3]    allocateEach[3]  1
    x[3,3]    findWorstP[1,3]  -2.5897328881469117e-01
    x[3,3]    findWorstP[2,3]  -2.6944315082163528e-01
    x[3,3]    findWorstP[3,1]  1.5660337102624280e-01
    x[3,3]    findWorstP[3,2]  1.5660337102624280e-01
    x[3,3]    findWorstP[3,4]  1.5660337102624280e-01
    x[3,3]    findWorstP[3,5]  1.5660337102624280e-01
    x[3,3]    findWorstP[4,3]  -2.0748727889508112e-01
    x[3,3]    findWorstP[5,3]  -2.0794720584105592e-01
    x[3,4]    allocateEach[4]  1
    x[3,4]    findWorstP[1,3]  -0.220635583114715
    x[3,4]    findWorstP[2,3]  -1.6738739937462574e-01
    x[3,4]    findWorstP[3,1]  6.1499893321954338e-02
    x[3,4]    findWorstP[3,2]  6.1499893321954338e-02
    x[3,4]    findWorstP[3,4]  6.1499893321954338e-02
    x[3,4]    findWorstP[3,5]  6.1499893321954338e-02
    x[3,4]    findWorstP[4,3]  -7.9912769566270872e-02
    x[3,4]    findWorstP[5,3]  -2.0995974913413840e-01
    x[3,5]    allocateEach[5]  1
    x[3,5]    findWorstP[1,3]  -1.5025041736227047e-02
    x[3,5]    findWorstP[2,3]  -0.15128733949837
    x[3,5]    findWorstP[3,1]  1.9316727117559207e-01
    x[3,5]    findWorstP[3,2]  1.9316727117559207e-01
    x[3,5]    findWorstP[3,4]  1.9316727117559207e-01
    x[3,5]    findWorstP[3,5]  1.9316727117559207e-01
    x[3,5]    findWorstP[4,3]  -1.3106372667797431e-01
    x[3,5]    findWorstP[5,3]  -1.5672095853224752e-01
    x[4,1]    allocateEach[1]  1
    x[4,1]    findWorstP[1,4]  -2.8070593846887676e-01
    x[4,1]    findWorstP[2,4]  -3.1102388397312216e-02
    x[4,1]    findWorstP[3,4]  -1.9580755280563258e-01
    x[4,1]    findWorstP[4,1]  1.9881269687424274e-01
    x[4,1]    findWorstP[4,2]  1.9881269687424274e-01
    x[4,1]    findWorstP[4,3]  1.9881269687424274e-01
    x[4,1]    findWorstP[4,5]  1.9881269687424274e-01
    x[4,1]    findWorstP[5,4]  -2.1183188243002907e-01
    x[4,2]    allocateEach[2]  1
    x[4,2]    findWorstP[1,4]  -4.5790603386596712e-02
    x[4,2]    findWorstP[2,4]  -1.8119220278091941e-01
    x[4,2]    findWorstP[3,4]  -2.3290484318327287e-01
    x[4,2]    findWorstP[4,1]  2.3733947177126238e-01
    x[4,2]    findWorstP[4,2]  2.3733947177126238e-01
    x[4,2]    findWorstP[4,3]  2.3733947177126238e-01
    x[4,2]    findWorstP[4,5]  2.3733947177126238e-01
    x[4,2]    findWorstP[5,4]  -7.3130206870729214e-02
    x[4,3]    allocateEach[3]  1
    x[4,3]    findWorstP[1,4]  -2.5897328881469117e-01
    x[4,3]    findWorstP[2,4]  -2.6944315082163528e-01
    x[4,3]    findWorstP[3,4]  -1.5660337102624280e-01
    x[4,3]    findWorstP[4,1]  2.0748727889508112e-01
    x[4,3]    findWorstP[4,2]  2.0748727889508112e-01
    x[4,3]    findWorstP[4,3]  2.0748727889508112e-01
    x[4,3]    findWorstP[4,5]  2.0748727889508112e-01
    x[4,3]    findWorstP[5,4]  -2.0794720584105592e-01
    x[4,4]    allocateEach[4]  1
    x[4,4]    findWorstP[1,4]  -0.220635583114715
    x[4,4]    findWorstP[2,4]  -1.6738739937462574e-01
    x[4,4]    findWorstP[3,4]  -6.1499893321954338e-02
    x[4,4]    findWorstP[4,1]  7.9912769566270872e-02
    x[4,4]    findWorstP[4,2]  7.9912769566270872e-02
    x[4,4]    findWorstP[4,3]  7.9912769566270872e-02
    x[4,4]    findWorstP[4,5]  7.9912769566270872e-02
    x[4,4]    findWorstP[5,4]  -2.0995974913413840e-01
    x[4,5]    allocateEach[5]  1
    x[4,5]    findWorstP[1,4]  -1.5025041736227047e-02
    x[4,5]    findWorstP[2,4]  -0.15128733949837
    x[4,5]    findWorstP[3,4]  -1.9316727117559207e-01
    x[4,5]    findWorstP[4,1]  1.3106372667797431e-01
    x[4,5]    findWorstP[4,2]  1.3106372667797431e-01
    x[4,5]    findWorstP[4,3]  1.3106372667797431e-01
    x[4,5]    findWorstP[4,5]  1.3106372667797431e-01
    x[4,5]    findWorstP[5,4]  -1.5672095853224752e-01
    x[5,1]    allocateEach[1]  1
    x[5,1]    findWorstP[1,5]  -2.8070593846887676e-01
    x[5,1]    findWorstP[2,5]  -3.1102388397312216e-02
    x[5,1]    findWorstP[3,5]  -1.9580755280563258e-01
    x[5,1]    findWorstP[4,5]  -1.9881269687424274e-01
    x[5,1]    findWorstP[5,1]  2.1183188243002907e-01
    x[5,1]    findWorstP[5,2]  2.1183188243002907e-01
    x[5,1]    findWorstP[5,3]  2.1183188243002907e-01
    x[5,1]    findWorstP[5,4]  2.1183188243002907e-01
    x[5,2]    allocateEach[2]  1
    x[5,2]    findWorstP[1,5]  -4.5790603386596712e-02
    x[5,2]    findWorstP[2,5]  -1.8119220278091941e-01
    x[5,2]    findWorstP[3,5]  -2.3290484318327287e-01
    x[5,2]    findWorstP[4,5]  -2.3733947177126238e-01
    x[5,2]    findWorstP[5,1]  7.3130206870729214e-02
    x[5,2]    findWorstP[5,2]  7.3130206870729214e-02
    x[5,2]    findWorstP[5,3]  7.3130206870729214e-02
    x[5,2]    findWorstP[5,4]  7.3130206870729214e-02
    x[5,3]    allocateEach[3]  1
    x[5,3]    findWorstP[1,5]  -2.5897328881469117e-01
    x[5,3]    findWorstP[2,5]  -2.6944315082163528e-01
    x[5,3]    findWorstP[3,5]  -1.5660337102624280e-01
    x[5,3]    findWorstP[4,5]  -2.0748727889508112e-01
    x[5,3]    findWorstP[5,1]  2.0794720584105592e-01
    x[5,3]    findWorstP[5,2]  2.0794720584105592e-01
    x[5,3]    findWorstP[5,3]  2.0794720584105592e-01
    x[5,3]    findWorstP[5,4]  2.0794720584105592e-01
    x[5,4]    allocateEach[4]  1
    x[5,4]    findWorstP[1,5]  -0.220635583114715
    x[5,4]    findWorstP[2,5]  -1.6738739937462574e-01
    x[5,4]    findWorstP[3,5]  -6.1499893321954338e-02
    x[5,4]    findWorstP[4,5]  -7.9912769566270872e-02
    x[5,4]    findWorstP[5,1]  2.0995974913413840e-01
    x[5,4]    findWorstP[5,2]  2.0995974913413840e-01
    x[5,4]    findWorstP[5,3]  2.0995974913413840e-01
    x[5,4]    findWorstP[5,4]  2.0995974913413840e-01
    x[5,5]    allocateEach[5]  1
    x[5,5]    findWorstP[1,5]  -1.5025041736227047e-02
    x[5,5]    findWorstP[2,5]  -0.15128733949837
    x[5,5]    findWorstP[3,5]  -1.9316727117559207e-01
    x[5,5]    findWorstP[4,5]  -1.3106372667797431e-01
    x[5,5]    findWorstP[5,1]  1.5672095853224752e-01
    x[5,5]    findWorstP[5,2]  1.5672095853224752e-01
    x[5,5]    findWorstP[5,3]  1.5672095853224752e-01
    x[5,5]    findWorstP[5,4]  1.5672095853224752e-01
    MARKER    'MARKER'                 'INTEND'
RHS
    RHS1      allocateEach[1]  1
    RHS1      allocateEach[2]  1
    RHS1      allocateEach[3]  1
    RHS1      allocateEach[4]  1
    RHS1      allocateEach[5]  1
    RHS1      allocateAllCash  1
BOUNDS
 UP BND1      z         1
 MI BND1      cashProportion[1]
 UP BND1      cashProportion[1]  1
 MI BND1      cashProportion[2]
 UP BND1      cashProportion[2]  1
 MI BND1      cashProportion[3]
 UP BND1      cashProportion[3]  1
 MI BND1      cashProportion[4]
 UP BND1      cashProportion[4]  1
 MI BND1      cashProportion[5]
 UP BND1      cashProportion[5]  1
 BV BND1      x[1,1]  
 BV BND1      x[1,2]  
 BV BND1      x[1,3]  
 BV BND1      x[1,4]  
 BV BND1      x[1,5]  
 BV BND1      x[2,1]  
 BV BND1      x[2,2]  
 BV BND1      x[2,3]  
 BV BND1      x[2,4]  
 BV BND1      x[2,5]  
 BV BND1      x[3,1]  
 BV BND1      x[3,2]  
 BV BND1      x[3,3]  
 BV BND1      x[3,4]  
 BV BND1      x[3,5]  
 BV BND1      x[4,1]  
 BV BND1      x[4,2]  
 BV BND1      x[4,3]  
 BV BND1      x[4,4]  
 BV BND1      x[4,5]  
 BV BND1      x[5,1]  
 BV BND1      x[5,2]  
 BV BND1      x[5,3]  
 BV BND1      x[5,4]  
 BV BND1      x[5,5]  
ENDATA
